688387
140,127,221,76,157,148,114,1,131,51,79,24,181,60,122,84,166,78,94,56,75,173,28,83,192,118,85,69,194,180,187,123,130,147,172,135,205,217,125,208,72,112,159,41,97,50,225,68,176,121,151,190,113,197,199,64,163,153,9,200,109,13,164,193,96,119,7,137,59,15,188,184,2,207,158,22,198,177,30,42,206,38,73,156,82,139,70,117,48,66,146,126,162,31,62,0,71,134,161,132,154,111,228,35,6,209,182,19,116,25,21,88,178,191,36,33,27,150,49,107,93,34,86,54,61,101,168,26,39,80,129,77,214,74,204,195,106,160,115,183,100,165,95,90,8,67,143,144,210,155,4,43,63,136,14,29,219,175,222,16,46,224,12,47,110,133,18,226,124,45,213,196,142,10,138,57,58,220,212,92,167,171,203,229,44,211,103,5,202,37,223,32,128,152,216,20,3,141,169,89,149,170,185,108,227,87,145,11,186,102,81,179,120,40,105,218,65,189,98,201,104,174,53,17,55,91,52,99,215,23
